(set-info :smt-lib-version 2.6)
(set-logic QF_LIA)
(set-info :category "industrial")
(set-info :status sat)
(declare-fun x0 () Int)
(declare-fun x1 () Int)
(declare-fun x10 () Int)
(declare-fun x11 () Int)
(declare-fun x12 () Int)
(declare-fun x13 () Int)
(declare-fun x14 () Int)
(declare-fun x15 () Int)
(declare-fun x16 () Int)
(declare-fun x17 () Int)
(declare-fun x18 () Int)
(declare-fun x19 () Int)
(declare-fun x2 () Int)
(declare-fun x20 () Int)
(declare-fun x21 () Int)
(declare-fun x22 () Int)
(declare-fun x23 () Int)
(declare-fun x24 () Int)
(declare-fun x25 () Int)
(declare-fun x26 () Int)
(declare-fun x27 () Int)
(declare-fun x28 () Int)
(declare-fun x29 () Int)
(declare-fun x3 () Int)
(declare-fun x4 () Int)
(declare-fun x5 () Int)
(declare-fun x6 () Int)
(declare-fun x7 () Int)
(declare-fun x8 () Int)
(declare-fun x9 () Int)
(assert (let ((?v_20 (* 0 x0)) (?v_13 (* 0 x10)) (?v_15 (* 1 x14)) (?v_106 (* 2 x15)) (?v_86 (* 0 x20)) (?v_18 (* 0 x21)) (?v_64 (* 1 x23)) (?v_1 (* 0 x28)) (?v_11 (* 0 x7)) (?v_2 (* 1 x29)) (?v_47 (* 2 x5)) (?v_39 (* 0 x1)) (?v_44 (* 0 x17)) (?v_3 (* 1 x12)) (?v_10 (* 1 x15)) (?v_84 (* 1 x2)) (?v_8 (* 1 x20)) (?v_55 (* 0 x22)) (?v_6 (* 0 x26)) (?v_72 (* 1 x19)) (?v_9 (* 1 x27)) (?v_7 (* 0 x4)) (?v_35 (* 0 x5)) (?v_29 (* 0 x6)) (?v_91 (* 1 x9)) (?v_58 (* 1 x10)) (?v_17 (* 1 x17)) (?v_22 (* 0 x2)) (?v_30 (* 0 x8)) (?v_12 (* 1 x24)) (?v_100 (* 2 x28)) (?v_41 (* 1 x0)) (?v_26 (* 0 x13)) (?v_14 (* 0 x16)) (?v_16 (* 0 x27)) (?v_23 (* 1 x3)) (?v_52 (* 2 x0)) (?v_46 (* 1 x22)) (?v_61 (* 0 x3)) (?v_24 (* 1 x6)) (?v_34 (* 0 x11)) (?v_28 (* 0 x23)) (?v_56 (* 0 x29)) (?v_31 (* 0 x9)) (?v_96 (* 1 x11)) (?v_54 (* 0 x19)) (?v_68 (* 1 x21))) (let ((?v_79 (+ ?v_30 ?v_31))) (let ((?v_81 (+ ?v_29 ?v_79)) (?v_74 (* 1 x13)) (?v_48 (* 0 x24)) (?v_57 (* 1 x5)) (?v_69 (* 1 x8)) (?v_65 (* 0 x12)) (?v_71 (* 0 x15)) (?v_66 (* 1 x1)) (?v_104 (* 2 x14)) (?v_90 (* 1 x7)) (?v_103 (* 1 x18)) (?v_82 (* 0 x14)) (?v_67 (* 1 x26)) (?v_76 (* 2 x27)) (?v_94 (* 0 x25)) (?v_87 (* 1 x25)) (?v_83 (* 0 x18)) (?v_95 (+ ?v_56 ?v_23))) (let ((?v_105 (+ ?v_57 ?v_69)) (?v_89 (* 1 x16)) (?v_97 (* 2 x20)) (?v_102 (* 1 x4)) (?v_99 (* 1 x28)) (?v_101 (* 2 x25))) (let ((?v_109 (+ ?v_102 ?v_90)) (?v_108 (+ ?v_87 ?v_2)) (?v_80 (* (- 1) x1)) (?v_62 (* (- 1) x11)) (?v_21 (* (- 1) x12)) (?v_0 (* (- 2) x18)) (?v_5 (* (- 2) x19)) (?v_60 (* (- 1) x27)) (?v_107 (* (- 2) x10)) (?v_4 (* (- 1) x16)) (?v_70 (* (- 1) x21)) (?v_53 (* (- 1) x15)) (?v_33 (* (- 1) x23)) (?v_50 (* (- 1) x6)) (?v_51 (* (- 1) x9)) (?v_19 (* (- 1) x28)) (?v_37 (* (- 2) x23)) (?v_93 (* (- 1) x29)) (?v_25 (* (- 1) x8)) (?v_27 (* (- 1) x7)) (?v_42 (* (- 1) x10)) (?v_38 (* (- 1) x13)) (?v_43 (* (- 1) x14)) (?v_88 (* (- 1) x5)) (?v_32 (* (- 1) x0)) (?v_78 (* (- 2) x15)) (?v_36 (* (- 1) x18)) (?v_40 (* (- 1) x20)) (?v_59 (* (- 1) x22)) (?v_85 (* (- 2) x11)) (?v_45 (* (- 1) x19)) (?v_63 (* (- 1) x4)) (?v_49 (* (- 1) x25)) (?v_77 (* (- 1) x3)) (?v_73 (* (- 1) x17)) (?v_75 (* (- 1) x2)) (?v_92 (* (- 1) x26)) (?v_98 (* (- 1) x24))) (and (<= (+ ?v_20 (+ ?v_80 (+ ?v_62 (+ ?v_13 (+ ?v_21 (+ ?v_15 (+ ?v_106 (+ ?v_0 (+ ?v_5 (+ ?v_60 (+ ?v_86 (+ ?v_18 (+ ?v_64 (+ ?v_1 (+ ?v_11 (+ ?v_2 ?v_47)))))))))))))))) 0) (<= (+ ?v_107 (+ ?v_4 (+ ?v_39 (+ ?v_44 (+ ?v_3 (+ ?v_10 (+ ?v_0 (+ ?v_84 (+ ?v_70 (+ ?v_8 (+ ?v_55 (+ ?v_6 (+ ?v_72 (+ ?v_9 (+ ?v_1 (+ ?v_7 (+ ?v_35 (+ ?v_29 (+ ?v_2 ?v_91))))))))))))))))))) 0) (<= (+ ?v_58 (+ ?v_3 (+ ?v_53 (+ ?v_4 (+ ?v_17 (+ ?v_5 (+ ?v_22 (+ ?v_6 (+ ?v_7 (+ ?v_30 (+ ?v_8 (+ (* 2 x21) (+ ?v_12 (+ ?v_9 ?v_100)))))))))))))) 0) (<= (+ ?v_41 (+ ?v_3 (+ ?v_26 (+ ?v_14 (+ ?v_10 (+ ?v_5 (+ ?v_33 (+ ?v_50 (+ ?v_51 (+ ?v_16 (+ ?v_11 (+ ?v_12 (+ ?v_19 (+ ?v_23 (* 2 x4))))))))))))))) (- 1)) (<= (+ ?v_37 (+ ?v_52 (+ ?v_13 (+ ?v_14 (+ ?v_15 (+ ?v_16 (+ ?v_17 (+ ?v_18 (+ ?v_46 (+ (* (- 2) x25) (+ ?v_19 (+ ?v_93 (+ ?v_61 (+ ?v_25 (+ ?v_7 (+ ?v_24 ?v_27)))))))))))))))) (- 1)) (<= (+ ?v_20 (+ ?v_42 (+ ?v_34 (+ ?v_21 (+ ?v_38 (+ ?v_43 (+ ?v_14 (+ ?v_22 (+ ?v_28 (+ ?v_6 (+ ?v_16 (+ ?v_23 (+ ?v_88 (+ ?v_24 (+ ?v_25 (+ ?v_17 (+ ?v_56 (+ ?v_7 ?v_31)))))))))))))))))) 0) (<= (+ ?v_32 (+ ?v_13 (+ ?v_96 (+ ?v_21 (+ ?v_26 (+ ?v_78 (+ ?v_14 (+ ?v_17 (+ ?v_36 (+ ?v_40 (+ ?v_59 (+ ?v_27 (+ ?v_54 (+ ?v_28 (+ ?v_6 (+ ?v_68 (+ ?v_1 (+ ?v_23 ?v_81)))))))))))))))))) 1) (<= (+ ?v_32 (+ ?v_33 (+ ?v_13 (+ ?v_34 (+ ?v_14 (+ ?v_22 (+ ?v_16 (+ ?v_35 (+ ?v_3 (+ ?v_74 (+ ?v_17 (+ (* (- 2) x7) (+ ?v_10 (+ ?v_36 (+ ?v_18 ?v_2))))))))))))))) 0) (<= (+ ?v_85 (+ ?v_37 (+ ?v_38 (+ ?v_4 (+ ?v_39 (+ ?v_13 (+ ?v_10 (+ ?v_36 (+ ?v_45 (+ ?v_22 (+ ?v_40 (+ ?v_63 (+ ?v_27 (+ ?v_18 (+ ?v_48 (+ ?v_9 (+ ?v_19 (+ ?v_57 (+ (* 2 x6) ?v_69))))))))))))))))))) (- 1)) (<= (+ ?v_41 (+ ?v_42 (+ ?v_43 (+ ?v_4 (+ ?v_44 (+ ?v_36 (+ ?v_45 (+ ?v_22 (+ ?v_40 (+ ?v_28 (+ ?v_27 (+ ?v_18 (+ ?v_30 (+ ?v_46 (+ ?v_12 (+ ?v_49 (+ ?v_19 ?v_47))))))))))))))))) 0) (<= (+ ?v_34 (+ ?v_4 (+ (* (- 2) x27) (+ ?v_65 (+ ?v_71 (+ ?v_17 (+ (* 2 x1) (+ ?v_36 (+ ?v_40 (+ ?v_28 (+ ?v_48 (+ ?v_49 (+ ?v_6 (+ ?v_19 (+ ?v_77 (+ ?v_50 (+ ?v_51 (+ ?v_35 ?v_30)))))))))))))))))) 0) (<= (+ ?v_52 (+ ?v_26 (+ ?v_53 (+ ?v_4 (+ ?v_73 (+ ?v_33 (+ ?v_66 (+ ?v_104 (+ ?v_36 (+ ?v_54 (+ ?v_8 (+ ?v_55 (+ ?v_49 (+ ?v_56 (+ ?v_7 (+ ?v_57 (+ ?v_30 ?v_90))))))))))))))))) 0) (<= (+ ?v_41 (+ ?v_38 (+ ?v_39 (+ ?v_34 (+ ?v_58 (+ ?v_3 (+ ?v_10 (+ ?v_45 (+ ?v_40 (+ ?v_59 (+ ?v_48 (+ ?v_49 (+ ?v_60 (+ ?v_50 (+ ?v_1 (+ ?v_61 (+ ?v_57 (* 2 x29)))))))))))))))))) (- 1)) (<= (+ ?v_62 (+ ?v_4 (+ ?v_63 (+ ?v_25 (+ ?v_39 (+ ?v_44 (+ ?v_3 (+ ?v_59 (+ ?v_54 (+ ?v_18 (+ ?v_28 (+ ?v_48 (+ ?v_103 (+ ?v_49 (+ ?v_6 (+ ?v_61 (+ ?v_9 (+ ?v_1 (+ ?v_11 (* 3 x29)))))))))))))))))))) 1) (<= (+ ?v_50 (+ ?v_20 (+ ?v_27 (+ ?v_39 (+ ?v_82 (+ ?v_14 (+ ?v_44 (+ ?v_10 (+ ?v_54 (+ ?v_22 (+ ?v_18 (+ ?v_64 (+ ?v_30 (+ ?v_8 (+ ?v_12 (+ ?v_49 (+ ?v_67 (+ ?v_76 (+ ?v_1 (+ ?v_2 ?v_23)))))))))))))))))))) (- 1)) (<= (+ ?v_13 (+ ?v_65 (+ ?v_66 (+ (* 2 x16) (+ ?v_45 (+ ?v_33 (+ ?v_67 (+ ?v_60 (+ ?v_63 (+ ?v_35 (+ ?v_27 (+ ?v_8 (+ ?v_68 (+ ?v_69 (+ (* 2 x24) (+ ?v_49 (+ ?v_19 ?v_2))))))))))))))))) (- 1)) (<= (+ ?v_43 (+ ?v_75 (+ ?v_52 (+ ?v_70 (+ ?v_39 (+ ?v_34 (+ ?v_58 (+ ?v_65 (+ ?v_71 (+ ?v_14 (+ ?v_16 (+ ?v_17 (+ ?v_72 (+ ?v_64 (+ ?v_19 (+ ?v_94 (+ ?v_61 (+ ?v_7 (+ ?v_29 ?v_30))))))))))))))))))) (- 1)) (<= (+ ?v_53 (+ ?v_4 (+ ?v_73 (+ ?v_39 (+ ?v_13 (+ ?v_74 (+ ?v_15 (+ ?v_45 (+ ?v_75 (+ ?v_70 (+ ?v_55 (+ ?v_28 (+ ?v_6 (+ ?v_76 (+ ?v_19 (+ ?v_77 (+ ?v_31 (+ ?v_87 ?v_69)))))))))))))))))) 0) (<= (+ ?v_20 (+ ?v_38 (+ ?v_43 (+ ?v_78 (+ ?v_60 (+ ?v_27 (+ ?v_39 (+ ?v_13 (+ ?v_34 (+ ?v_44 (+ ?v_22 (+ ?v_3 (+ ?v_18 (+ ?v_48 (+ ?v_23 (+ ?v_7 (+ ?v_57 ?v_79))))))))))))))))) 0) (<= (+ ?v_41 (+ ?v_80 (+ ?v_58 (+ ?v_21 (+ ?v_38 (+ ?v_71 (+ ?v_17 (+ ?v_59 (+ ?v_77 (+ ?v_27 (+ ?v_83 (+ ?v_54 (+ ?v_8 (+ ?v_48 (+ ?v_16 (+ ?v_1 (+ ?v_7 ?v_81))))))))))))))))) (- 1)) (<= (+ ?v_13 (+ ?v_34 (+ ?v_82 (+ ?v_66 (+ ?v_3 (+ ?v_59 (+ ?v_51 (+ ?v_83 (+ ?v_54 (+ ?v_22 (+ ?v_28 (+ ?v_8 (+ ?v_48 (+ ?v_67 (+ ?v_16 (+ ?v_1 (+ ?v_61 (+ ?v_29 (+ ?v_57 (+ ?v_11 ?v_30)))))))))))))))))))) (- 1)) (<= (+ ?v_62 (+ ?v_43 (+ ?v_4 (+ ?v_20 (+ ?v_63 (+ ?v_25 (+ ?v_51 (+ ?v_58 (+ ?v_65 (+ ?v_71 (+ ?v_19 (+ ?v_83 (+ ?v_54 (+ ?v_84 (+ ?v_48 (+ ?v_6 ?v_95)))))))))))))))) 1) (<= (+ ?v_85 (+ ?v_21 (+ ?v_38 (+ ?v_82 (+ ?v_14 (+ ?v_70 (+ ?v_33 (+ ?v_92 (+ ?v_10 (+ ?v_83 (+ ?v_86 (+ ?v_48 (+ ?v_7 (+ ?v_46 (+ ?v_1 (+ ?v_23 ?v_105)))))))))))))))) (- 1)) (<= (+ ?v_62 (+ ?v_50 (+ ?v_39 (+ ?v_58 (+ ?v_65 (+ ?v_26 (+ ?v_10 (+ ?v_89 (+ ?v_17 (+ ?v_83 (+ ?v_22 (+ ?v_16 (+ ?v_7 (+ ?v_11 (+ ?v_97 (+ ?v_12 (+ ?v_87 ?v_67))))))))))))))))) 0) (<= (+ ?v_62 (+ (* (- 2) x14) (+ ?v_20 (+ ?v_42 (+ ?v_38 (+ ?v_88 (+ ?v_71 (+ ?v_44 (+ ?v_66 (+ ?v_89 (+ ?v_83 (+ ?v_86 (+ ?v_67 (+ ?v_1 (+ ?v_2 (+ ?v_102 (+ ?v_90 (+ ?v_69 ?v_91)))))))))))))))))) 0) (<= (+ ?v_80 (+ ?v_92 (+ ?v_63 (+ ?v_88 (+ ?v_13 (+ ?v_65 (+ ?v_26 (+ ?v_14 (+ ?v_15 (+ ?v_83 (+ ?v_18 (+ ?v_55 (+ ?v_28 (+ ?v_48 (+ ?v_16 (+ ?v_61 (+ ?v_29 (+ ?v_30 (+ ?v_72 ?v_93))))))))))))))))))) (- 1)) (<= (+ ?v_20 (+ ?v_80 (+ ?v_82 (+ ?v_58 (+ (* 2 x11) (+ ?v_71 (+ ?v_36 (+ ?v_22 (+ ?v_60 (+ ?v_51 (+ ?v_86 (+ ?v_18 (+ ?v_98 (+ ?v_29 (+ ?v_30 (+ ?v_46 (+ ?v_19 (+ ?v_94 ?v_95)))))))))))))))))) 0) (<= (+ ?v_20 (+ ?v_80 (+ ?v_96 (+ ?v_77 (+ ?v_51 (+ ?v_82 (+ ?v_84 (+ ?v_88 (+ ?v_25 (+ ?v_3 (+ ?v_18 (+ ?v_12 (+ ?v_94 (+ ?v_9 (+ ?v_1 ?v_29))))))))))))))) 1) (<= (+ ?v_37 (+ ?v_20 (+ ?v_42 (+ ?v_65 (+ ?v_14 (+ ?v_10 (+ ?v_36 (+ ?v_45 (+ ?v_18 (+ ?v_97 (+ ?v_98 (+ ?v_94 (+ ?v_6 (+ ?v_16 (+ ?v_99 (+ (* (- 2) x29) (+ ?v_61 ?v_81))))))))))))))))) 0) (<= (+ ?v_26 (+ ?v_14 (+ ?v_44 (+ ?v_27 (+ ?v_25 (+ ?v_71 (+ ?v_86 (+ ?v_66 (+ ?v_55 (+ (* 2 x23) (+ ?v_16 (+ ?v_12 (+ ?v_67 (+ ?v_1 (+ ?v_93 (+ ?v_57 ?v_24)))))))))))))))) (- 1)) (<= (+ ?v_20 (+ ?v_42 (+ ?v_21 (+ ?v_51 (+ ?v_39 (+ ?v_34 (+ ?v_26 (+ ?v_82 (+ ?v_71 (+ (* 2 x17) (+ ?v_55 (+ ?v_48 (+ ?v_6 (+ ?v_61 (+ ?v_7 (+ ?v_35 (+ ?v_99 (+ (* 2 x18) ?v_56)))))))))))))))))) 0) (<= (+ ?v_62 (+ ?v_13 (+ ?v_26 (+ ?v_15 (+ ?v_71 (+ ?v_14 (+ ?v_44 (+ ?v_28 (+ ?v_84 (+ ?v_86 (+ ?v_48 (+ ?v_7 (+ ?v_29 (+ ?v_11 (+ ?v_30 (+ ?v_72 (+ ?v_91 (+ ?v_101 (+ ?v_76 ?v_100))))))))))))))))))) 0) (<= (+ ?v_34 (+ ?v_14 (+ ?v_41 (+ ?v_73 (+ ?v_66 (+ ?v_10 (+ ?v_45 (+ ?v_70 (+ ?v_92 (+ ?v_83 (+ ?v_22 (+ ?v_8 (+ ?v_64 (+ ?v_90 (+ ?v_69 (+ ?v_101 ?v_2)))))))))))))))) 0) (<= (+ ?v_32 (+ ?v_43 (+ ?v_33 (+ ?v_92 (+ ?v_51 (+ ?v_65 (+ ?v_22 (+ ?v_16 (+ ?v_29 (+ ?v_66 (+ ?v_74 (+ ?v_17 (+ ?v_49 ?v_102))))))))))))) 0) (<= (+ ?v_80 (+ ?v_34 (+ ?v_58 (+ ?v_21 (+ ?v_38 (+ ?v_43 (+ ?v_70 (+ ?v_60 (+ ?v_88 (+ ?v_10 (+ ?v_98 (+ ?v_55 (+ ?v_28 (+ ?v_103 (+ ?v_94 (+ ?v_67 (+ ?v_1 (+ ?v_61 ?v_109)))))))))))))))))) (- 1)) (<= (+ ?v_41 (+ ?v_13 (+ ?v_96 (+ ?v_38 (+ ?v_53 (+ ?v_4 (+ ?v_22 (+ ?v_70 (+ ?v_66 (+ ?v_64 (+ ?v_98 (+ ?v_92 (+ ?v_50 (+ ?v_7 (+ ?v_103 (+ ?v_99 (+ ?v_56 ?v_57))))))))))))))))) 1) (<= (+ ?v_20 (+ ?v_42 (+ ?v_34 (+ ?v_28 (+ ?v_104 (+ ?v_22 (+ ?v_50 (+ ?v_51 (+ ?v_3 (+ ?v_10 (+ ?v_45 (+ ?v_48 (+ ?v_6 (+ ?v_1 (+ ?v_11 (+ ?v_103 (+ ?v_87 (+ ?v_9 (+ ?v_102 ?v_105))))))))))))))))))) (- 1)) (<= (+ ?v_4 (+ ?v_33 (+ ?v_92 (+ ?v_20 (+ ?v_13 (+ ?v_96 (+ ?v_26 (+ ?v_17 (+ ?v_40 (+ ?v_54 (+ ?v_55 (+ ?v_61 (+ ?v_35 (+ ?v_29 (+ ?v_11 (+ ?v_30 (+ ?v_31 (+ ?v_103 (+ ?v_84 ?v_2))))))))))))))))))) (- 1)) (<= (+ ?v_20 (+ ?v_96 (+ ?v_14 (+ ?v_73 (+ ?v_75 (+ ?v_70 (+ ?v_39 (+ ?v_106 (+ ?v_86 (+ ?v_59 (+ ?v_28 (+ ?v_60 (+ ?v_63 (+ ?v_48 (+ ?v_6 (+ ?v_35 (+ ?v_103 (+ ?v_99 (+ ?v_23 (+ ?v_24 ?v_91)))))))))))))))))))) 0) (<= (+ ?v_21 (+ ?v_73 (+ ?v_39 (+ ?v_96 (+ ?v_26 (+ ?v_14 (+ ?v_45 (+ ?v_33 (+ ?v_98 (+ ?v_61 (+ ?v_35 (+ ?v_103 (+ ?v_84 (+ ?v_8 (+ ?v_46 (+ ?v_49 (+ ?v_76 ?v_19))))))))))))))))) 1) (<= (+ ?v_107 (+ ?v_80 (+ ?v_96 (+ ?v_38 (+ ?v_82 (+ ?v_53 (+ ?v_5 (+ ?v_28 (+ ?v_92 (+ ?v_84 (+ ?v_63 (+ ?v_35 (+ ?v_29 (+ ?v_27 (+ ?v_55 (+ ?v_30 (+ ?v_87 (+ ?v_9 (+ ?v_56 ?v_91))))))))))))))))))) 1) (<= (+ ?v_75 (+ ?v_33 (+ ?v_20 (+ ?v_60 (+ ?v_13 (+ ?v_34 (+ ?v_65 (+ ?v_26 (+ ?v_71 (+ ?v_66 (+ ?v_89 (+ ?v_59 (+ ?v_48 (+ ?v_6 (+ ?v_19 (+ ?v_30 (+ ?v_87 (+ ?v_56 (+ ?v_90 ?v_91))))))))))))))))))) 0) (<= (+ (* (- 2) x16) (+ (* (- 2) x2) (+ ?v_41 (+ ?v_80 (+ ?v_58 (+ ?v_73 (+ ?v_65 (+ ?v_15 (+ ?v_10 (+ ?v_36 (+ ?v_28 (+ ?v_16 (+ ?v_63 (+ ?v_27 (+ ?v_51 (+ ?v_8 (+ ?v_12 (+ ?v_19 ?v_108)))))))))))))))))) (- 1)) (<= (+ ?v_4 (+ ?v_33 (+ ?v_20 (+ ?v_13 (+ ?v_26 (+ ?v_66 (+ ?v_17 (+ (* 2 x12) (+ ?v_45 (+ ?v_68 (+ ?v_98 (+ ?v_16 (+ ?v_63 (+ ?v_29 (+ ?v_11 (+ ?v_31 (+ ?v_103 ?v_108))))))))))))))))) 0) (<= (+ ?v_20 (+ ?v_80 (+ ?v_13 (+ ?v_96 (+ ?v_82 (+ ?v_53 (+ ?v_14 (+ ?v_44 (+ ?v_45 (+ ?v_22 (+ ?v_70 (+ ?v_28 (+ ?v_29 (+ ?v_30 (+ ?v_31 (+ ?v_87 (+ ?v_93 (+ (* 2 x3) ?v_109)))))))))))))))))) 1))))))))
(check-sat)
(exit)
